SAT/4279348_27.param
$ LBS instance with n = 27, seed = 4279348
letting cards be [12,18,22,9,37,16,3,4,2,32,30,28,31,47,21,15,13,8,35,7,19,20,46,34,1,24,26]
